75
1 0 1
2 0 1
2 1 5
3 0 5
3 1 1
3 2 3
4 0 5
4 1 1
4 2 4
4 3 2
5 0 1
5 1 3
5 2 3
5 3 2
5 4 4
6 0 1
6 1 2
6 2 5
6 3 5
6 4 2
6 5 1
7 0 2
7 1 2
7 2 2
7 3 2
7 4 1
7 5 4
7 6 2
8 0 5
8 1 1
8 2 5
8 3 1
8 4 5
8 5 3
8 6 5
8 7 1
9 0 5
9 1 3
9 2 3
9 3 2
9 4 3
9 5 3
9 6 1
9 7 5
9 8 5
10 0 3
10 1 5
10 2 4
10 3 5
10 4 1
10 5 4
10 6 2
10 7 2
10 8 4
10 9 5
11 0 2
11 1 3
11 2 4
11 3 2
11 4 3
11 5 4
11 6 5
11 7 5
11 8 1
11 9 2
11 10 3
12 0 3
12 1 4
12 2 3
12 3 2
12 4 4
12 5 1
12 6 4
12 7 4
12 8 2
12 9 5
12 10 5
12 11 2
13 0 5
13 1 1
13 2 4
13 3 5
13 4 1
13 5 1
13 6 1
13 7 4
13 8 2
13 9 2
13 10 3
13 11 3
13 12 3
14 0 4
14 1 4
14 2 4
14 3 5
14 4 4
14 5 2
14 6 5
14 7 1
14 8 3
14 9 5
14 10 5
14 11 3
14 12 5
14 13 4
15 0 4
15 1 4
15 2 2
15 3 2
15 4 1
15 5 3
15 6 5
15 7 5
15 8 1
15 9 2
15 10 1
15 11 5
15 12 2
15 13 3
15 14 3
16 0 4
16 1 2
16 2 3
16 3 2
16 4 3
16 5 4
16 6 3
16 7 4
16 8 3
16 9 1
16 10 1
16 11 4
16 12 4
16 13 4
16 14 3
16 15 1
17 0 1
17 1 4
17 2 2
17 3 3
17 4 4
17 5 1
17 6 5
17 7 5
17 8 1
17 9 4
17 10 5
17 11 2
17 12 2
17 13 4
17 14 3
17 15 5
17 16 4
18 0 1
18 1 2
18 2 2
18 3 5
18 4 3
18 5 3
18 6 4
18 7 3
18 8 1
18 9 5
18 10 3
18 11 2
18 12 3
18 13 5
18 14 5
18 15 4
18 16 3
18 17 2
19 0 3
19 1 1
19 2 1
19 3 3
19 4 2
19 5 1
19 6 3
19 7 3
19 8 4
19 9 2
19 10 1
19 11 4
19 12 1
19 13 3
19 14 2
19 15 3
19 16 3
19 17 4
19 18 4
20 0 1
20 1 3
20 2 1
20 3 3
20 4 1
20 5 3
20 6 5
20 7 4
20 8 3
20 9 1
20 10 5
20 11 4
20 12 3
20 13 4
20 14 4
20 15 5
20 16 1
20 17 5
20 18 2
20 19 1
21 0 2
21 1 5
21 2 3
21 3 1
21 4 2
21 5 2
21 6 1
21 7 3
21 8 2
21 9 1
21 10 5
21 11 5
21 12 3
21 13 4
21 14 1
21 15 4
21 16 2
21 17 1
21 18 5
21 19 5
21 20 3
22 0 1
22 1 5
22 2 5
22 3 3
22 4 5
22 5 2
22 6 3
22 7 4
22 8 5
22 9 2
22 10 1
22 11 1
22 12 1
22 13 4
22 14 5
22 15 5
22 16 4
22 17 2
22 18 4
22 19 5
22 20 2
22 21 3
23 0 5
23 1 4
23 2 4
23 3 5
23 4 4
23 5 5
23 6 3
23 7 5
23 8 4
23 9 3
23 10 4
23 11 2
23 12 5
23 13 5
23 14 1
23 15 3
23 16 4
23 17 4
23 18 2
23 19 4
23 20 2
23 21 3
23 22 3
24 0 4
24 1 2
24 2 2
24 3 4
24 4 2
24 5 4
24 6 1
24 7 5
24 8 3
24 9 4
24 10 1
24 11 1
24 12 2
24 13 2
24 14 2
24 15 1
24 16 4
24 17 3
24 18 4
24 19 4
24 20 3
24 21 3
24 22 1
24 23 4
25 0 1
25 1 3
25 2 4
25 3 3
25 4 5
25 5 5
25 6 4
25 7 1
25 8 1
25 9 1
25 10 1
25 11 3
25 12 3
25 13 2
25 14 1
25 15 3
25 16 1
25 17 4
25 18 5
25 19 3
25 20 1
25 21 3
25 22 2
25 23 3
25 24 1
26 0 3
26 1 4
26 2 5
26 3 5
26 4 2
26 5 5
26 6 5
26 7 4
26 8 4
26 9 4
26 10 2
26 11 4
26 12 5
26 13 1
26 14 5
26 15 3
26 16 1
26 17 1
26 18 3
26 19 4
26 20 1
26 21 3
26 22 1
26 23 4
26 24 2
26 25 4
27 0 1
27 1 5
27 2 3
27 3 1
27 4 2
27 5 2
27 6 4
27 7 3
27 8 2
27 9 3
27 10 1
27 11 5
27 12 5
27 13 3
27 14 2
27 15 5
27 16 3
27 17 3
27 18 1
27 19 4
27 20 3
27 21 4
27 22 1
27 23 3
27 24 5
27 25 1
27 26 4
28 0 4
28 1 3
28 2 1
28 3 3
28 4 1
28 5 2
28 6 2
28 7 2
28 8 2
28 9 2
28 10 3
28 11 3
28 12 2
28 13 4
28 14 3
28 15 4
28 16 2
28 17 3
28 18 2
28 19 5
28 20 3
28 21 3
28 22 3
28 23 4
28 24 3
28 25 4
28 26 2
28 27 1
29 0 3
29 1 5
29 2 2
29 3 3
29 4 2
29 5 1
29 6 1
29 7 2
29 8 3
29 9 2
29 10 4
29 11 4
29 12 2
29 13 2
29 14 4
29 15 4
29 16 3
29 17 2
29 18 3
29 19 3
29 20 4
29 21 5
29 22 4
29 23 1
29 24 2
29 25 5
29 26 2
29 27 1
29 28 5
30 0 5
30 1 4
30 2 5
30 3 4
30 4 4
30 5 3
30 6 5
30 7 3
30 8 1
30 9 4
30 10 4
30 11 4
30 12 4
30 13 3
30 14 4
30 15 1
30 16 2
30 17 3
30 18 5
30 19 4
30 20 4
30 21 5
30 22 1
30 23 4
30 24 3
30 25 5
30 26 2
30 27 2
30 28 5
30 29 2
31 0 4
31 1 2
31 2 3
31 3 3
31 4 4
31 5 3
31 6 1
31 7 4
31 8 1
31 9 3
31 10 5
31 11 2
31 12 5
31 13 4
31 14 4
31 15 2
31 16 1
31 17 3
31 18 3
31 19 3
31 20 4
31 21 1
31 22 1
31 23 2
31 24 3
31 25 2
31 26 5
31 27 5
31 28 2
31 29 3
31 30 2
32 0 3
32 1 2
32 2 5
32 3 3
32 4 1
32 5 1
32 6 2
32 7 3
32 8 3
32 9 1
32 10 3
32 11 1
32 12 1
32 13 4
32 14 5
32 15 4
32 16 3
32 17 3
32 18 2
32 19 4
32 20 4
32 21 1
32 22 1
32 23 5
32 24 2
32 25 4
32 26 1
32 27 1
32 28 2
32 29 1
32 30 1
32 31 3
33 0 5
33 1 3
33 2 4
33 3 1
33 4 3
33 5 3
33 6 2
33 7 2
33 8 1
33 9 5
33 10 5
33 11 2
33 12 3
33 13 3
33 14 3
33 15 4
33 16 5
33 17 1
33 18 4
33 19 2
33 20 2
33 21 3
33 22 3
33 23 3
33 24 5
33 25 3
33 26 1
33 27 1
33 28 2
33 29 5
33 30 1
33 31 3
33 32 5
34 0 2
34 1 1
34 2 3
34 3 1
34 4 1
34 5 4
34 6 5
34 7 3
34 8 2
34 9 3
34 10 1
34 11 4
34 12 3
34 13 1
34 14 4
34 15 5
34 16 5
34 17 4
34 18 2
34 19 4
34 20 1
34 21 5
34 22 2
34 23 1
34 24 2
34 25 1
34 26 5
34 27 3
34 28 2
34 29 4
34 30 5
34 31 2
34 32 5
34 33 4
35 0 4
35 1 1
35 2 1
35 3 1
35 4 3
35 5 3
35 6 3
35 7 2
35 8 4
35 9 4
35 10 2
35 11 4
35 12 4
35 13 3
35 14 5
35 15 3
35 16 1
35 17 2
35 18 3
35 19 4
35 20 1
35 21 1
35 22 5
35 23 3
35 24 3
35 25 1
35 26 1
35 27 1
35 28 5
35 29 4
35 30 2
35 31 3
35 32 5
35 33 1
35 34 3
36 0 2
36 1 5
36 2 4
36 3 3
36 4 5
36 5 3
36 6 1
36 7 1
36 8 2
36 9 5
36 10 2
36 11 2
36 12 2
36 13 4
36 14 2
36 15 3
36 16 3
36 17 5
36 18 1
36 19 5
36 20 1
36 21 1
36 22 3
36 23 1
36 24 2
36 25 1
36 26 5
36 27 4
36 28 2
36 29 2
36 30 5
36 31 1
36 32 2
36 33 3
36 34 3
36 35 1
37 0 3
37 1 4
37 2 5
37 3 2
37 4 5
37 5 1
37 6 1
37 7 5
37 8 1
37 9 4
37 10 3
37 11 4
37 12 1
37 13 2
37 14 4
37 15 2
37 16 5
37 17 5
37 18 4
37 19 3
37 20 3
37 21 3
37 22 2
37 23 3
37 24 2
37 25 2
37 26 4
37 27 1
37 28 1
37 29 5
37 30 1
37 31 2
37 32 5
37 33 1
37 34 5
37 35 1
37 36 5
38 0 4
38 1 4
38 2 5
38 3 3
38 4 1
38 5 2
38 6 4
38 7 4
38 8 3
38 9 1
38 10 4
38 11 3
38 12 3
38 13 1
38 14 2
38 15 5
38 16 2
38 17 3
38 18 2
38 19 3
38 20 5
38 21 2
38 22 4
38 23 4
38 24 4
38 25 2
38 26 1
38 27 2
38 28 5
38 29 3
38 30 4
38 31 4
38 32 2
38 33 2
38 34 4
38 35 3
38 36 3
38 37 4
39 0 2
39 1 2
39 2 5
39 3 1
39 4 2
39 5 4
39 6 5
39 7 3
39 8 3
39 9 3
39 10 3
39 11 3
39 12 3
39 13 4
39 14 2
39 15 2
39 16 5
39 17 5
39 18 3
39 19 5
39 20 1
39 21 2
39 22 5
39 23 2
39 24 5
39 25 4
39 26 3
39 27 5
39 28 1
39 29 4
39 30 4
39 31 4
39 32 4
39 33 1
39 34 2
39 35 1
39 36 4
39 37 4
39 38 1
40 0 2
40 1 2
40 2 2
40 3 5
40 4 2
40 5 4
40 6 2
40 7 3
40 8 1
40 9 5
40 10 5
40 11 4
40 12 5
40 13 2
40 14 3
40 15 3
40 16 1
40 17 2
40 18 1
40 19 4
40 20 5
40 21 5
40 22 5
40 23 2
40 24 3
40 25 4
40 26 3
40 27 3
40 28 2
40 29 1
40 30 4
40 31 5
40 32 1
40 33 1
40 34 4
40 35 5
40 36 3
40 37 3
40 38 1
40 39 2
41 0 2
41 1 2
41 2 3
41 3 2
41 4 5
41 5 2
41 6 2
41 7 3
41 8 5
41 9 2
41 10 1
41 11 5
41 12 1
41 13 3
41 14 5
41 15 1
41 16 2
41 17 4
41 18 1
41 19 3
41 20 4
41 21 5
41 22 4
41 23 4
41 24 3
41 25 1
41 26 1
41 27 5
41 28 3
41 29 3
41 30 5
41 31 1
41 32 5
41 33 5
41 34 5
41 35 2
41 36 3
41 37 3
41 38 3
41 39 5
41 40 1
42 0 4
42 1 1
42 2 1
42 3 5
42 4 4
42 5 3
42 6 5
42 7 5
42 8 5
42 9 1
42 10 5
42 11 1
42 12 4
42 13 5
42 14 3
42 15 3
42 16 1
42 17 3
42 18 2
42 19 5
42 20 2
42 21 2
42 22 1
42 23 3
42 24 2
42 25 3
42 26 3
42 27 3
42 28 4
42 29 5
42 30 5
42 31 5
42 32 4
42 33 5
42 34 4
42 35 1
42 36 2
42 37 1
42 38 5
42 39 4
42 40 3
42 41 5
43 0 5
43 1 2
43 2 5
43 3 3
43 4 4
43 5 3
43 6 4
43 7 1
43 8 1
43 9 2
43 10 1
43 11 2
43 12 2
43 13 2
43 14 5
43 15 5
43 16 3
43 17 3
43 18 1
43 19 4
43 20 4
43 21 1
43 22 2
43 23 3
43 24 3
43 25 4
43 26 2
43 27 5
43 28 4
43 29 2
43 30 3
43 31 4
43 32 3
43 33 1
43 34 2
43 35 2
43 36 3
43 37 3
43 38 4
43 39 2
43 40 1
43 41 3
43 42 1
44 0 4
44 1 5
44 2 2
44 3 2
44 4 1
44 5 3
44 6 2
44 7 5
44 8 3
44 9 4
44 10 3
44 11 5
44 12 1
44 13 2
44 14 4
44 15 3
44 16 5
44 17 5
44 18 2
44 19 5
44 20 1
44 21 5
44 22 5
44 23 5
44 24 2
44 25 2
44 26 3
44 27 1
44 28 3
44 29 1
44 30 3
44 31 2
44 32 4
44 33 3
44 34 4
44 35 2
44 36 5
44 37 5
44 38 5
44 39 4
44 40 4
44 41 2
44 42 1
44 43 2
45 0 1
45 1 5
45 2 5
45 3 5
45 4 1
45 5 4
45 6 1
45 7 2
45 8 3
45 9 4
45 10 4
45 11 4
45 12 4
45 13 2
45 14 4
45 15 1
45 16 4
45 17 5
45 18 3
45 19 2
45 20 3
45 21 4
45 22 4
45 23 2
45 24 5
45 25 1
45 26 5
45 27 4
45 28 5
45 29 2
45 30 1
45 31 1
45 32 3
45 33 2
45 34 4
45 35 1
45 36 4
45 37 2
45 38 2
45 39 4
45 40 4
45 41 2
45 42 2
45 43 5
45 44 4
46 0 2
46 1 4
46 2 3
46 3 4
46 4 1
46 5 1
46 6 4
46 7 1
46 8 5
46 9 1
46 10 4
46 11 3
46 12 1
46 13 5
46 14 3
46 15 1
46 16 3
46 17 5
46 18 2
46 19 5
46 20 2
46 21 3
46 22 4
46 23 1
46 24 5
46 25 5
46 26 3
46 27 2
46 28 3
46 29 5
46 30 2
46 31 3
46 32 3
46 33 4
46 34 3
46 35 1
46 36 4
46 37 4
46 38 2
46 39 5
46 40 2
46 41 5
46 42 1
46 43 3
46 44 1
46 45 4
47 0 3
47 1 2
47 2 3
47 3 5
47 4 4
47 5 2
47 6 1
47 7 1
47 8 2
47 9 3
47 10 3
47 11 1
47 12 2
47 13 4
47 14 3
47 15 5
47 16 4
47 17 4
47 18 2
47 19 2
47 20 4
47 21 5
47 22 5
47 23 4
47 24 5
47 25 4
47 26 5
47 27 3
47 28 4
47 29 3
47 30 1
47 31 3
47 32 1
47 33 1
47 34 1
47 35 4
47 36 1
47 37 1
47 38 2
47 39 1
47 40 2
47 41 2
47 42 5
47 43 1
47 44 5
47 45 5
47 46 2
48 0 3
48 1 2
48 2 3
48 3 1
48 4 5
48 5 1
48 6 1
48 7 2
48 8 5
48 9 3
48 10 2
48 11 3
48 12 5
48 13 1
48 14 5
48 15 4
48 16 1
48 17 4
48 18 1
48 19 4
48 20 1
48 21 1
48 22 5
48 23 5
48 24 1
48 25 3
48 26 2
48 27 5
48 28 5
48 29 1
48 30 2
48 31 4
48 32 2
48 33 3
48 34 3
48 35 1
48 36 4
48 37 1
48 38 2
48 39 4
48 40 4
48 41 1
48 42 3
48 43 4
48 44 2
48 45 1
48 46 5
48 47 1
49 0 5
49 1 3
49 2 5
49 3 5
49 4 4
49 5 4
49 6 5
49 7 2
49 8 1
49 9 4
49 10 3
49 11 5
49 12 5
49 13 1
49 14 4
49 15 3
49 16 1
49 17 3
49 18 1
49 19 1
49 20 1
49 21 1
49 22 1
49 23 5
49 24 3
49 25 5
49 26 4
49 27 3
49 28 2
49 29 1
49 30 4
49 31 3
49 32 5
49 33 3
49 34 3
49 35 5
49 36 4
49 37 2
49 38 2
49 39 1
49 40 4
49 41 5
49 42 4
49 43 3
49 44 5
49 45 2
49 46 3
49 47 5
49 48 1
50 0 2
50 1 5
50 2 1
50 3 1
50 4 3
50 5 1
50 6 3
50 7 3
50 8 1
50 9 4
50 10 3
50 11 4
50 12 5
50 13 1
50 14 3
50 15 5
50 16 2
50 17 4
50 18 4
50 19 1
50 20 4
50 21 3
50 22 1
50 23 2
50 24 3
50 25 3
50 26 5
50 27 3
50 28 5
50 29 4
50 30 3
50 31 3
50 32 2
50 33 2
50 34 3
50 35 1
50 36 3
50 37 2
50 38 5
50 39 5
50 40 1
50 41 3
50 42 5
50 43 4
50 44 4
50 45 4
50 46 2
50 47 1
50 48 4
50 49 2
51 0 4
51 1 1
51 2 2
51 3 5
51 4 4
51 5 2
51 6 4
51 7 2
51 8 1
51 9 4
51 10 2
51 11 4
51 12 4
51 13 2
51 14 5
51 15 1
51 16 2
51 17 5
51 18 5
51 19 1
51 20 3
51 21 2
51 22 2
51 23 3
51 24 3
51 25 2
51 26 5
51 27 2
51 28 2
51 29 1
51 30 3
51 31 4
51 32 5
51 33 3
51 34 2
51 35 4
51 36 1
51 37 1
51 38 1
51 39 3
51 40 4
51 41 5
51 42 3
51 43 5
51 44 3
51 45 1
51 46 5
51 47 4
51 48 5
51 49 3
51 50 4
52 0 4
52 1 3
52 2 4
52 3 2
52 4 2
52 5 4
52 6 4
52 7 3
52 8 4
52 9 5
52 10 4
52 11 1
52 12 1
52 13 3
52 14 4
52 15 3
52 16 5
52 17 3
52 18 1
52 19 4
52 20 1
52 21 5
52 22 5
52 23 5
52 24 1
52 25 2
52 26 5
52 27 4
52 28 3
52 29 1
52 30 4
52 31 4
52 32 1
52 33 4
52 34 2
52 35 1
52 36 5
52 37 1
52 38 4
52 39 4
52 40 1
52 41 3
52 42 1
52 43 2
52 44 1
52 45 2
52 46 3
52 47 4
52 48 5
52 49 3
52 50 3
52 51 3
53 0 1
53 1 4
53 2 2
53 3 3
53 4 2
53 5 1
53 6 2
53 7 1
53 8 1
53 9 5
53 10 2
53 11 5
53 12 3
53 13 3
53 14 4
53 15 4
53 16 5
53 17 2
53 18 3
53 19 4
53 20 3
53 21 1
53 22 2
53 23 1
53 24 3
53 25 5
53 26 3
53 27 1
53 28 2
53 29 4
53 30 5
53 31 5
53 32 1
53 33 2
53 34 4
53 35 1
53 36 1
53 37 4
53 38 5
53 39 4
53 40 2
53 41 3
53 42 4
53 43 3
53 44 5
53 45 2
53 46 3
53 47 2
53 48 3
53 49 1
53 50 4
53 51 5
53 52 2
54 0 2
54 1 1
54 2 3
54 3 4
54 4 2
54 5 2
54 6 4
54 7 3
54 8 4
54 9 3
54 10 4
54 11 4
54 12 5
54 13 3
54 14 5
54 15 4
54 16 5
54 17 5
54 18 4
54 19 4
54 20 1
54 21 2
54 22 5
54 23 1
54 24 3
54 25 1
54 26 3
54 27 4
54 28 5
54 29 4
54 30 2
54 31 3
54 32 1
54 33 1
54 34 5
54 35 5
54 36 3
54 37 4
54 38 3
54 39 1
54 40 5
54 41 1
54 42 1
54 43 1
54 44 1
54 45 3
54 46 4
54 47 2
54 48 4
54 49 2
54 50 5
54 51 2
54 52 3
54 53 3
55 0 4
55 1 5
55 2 5
55 3 3
55 4 4
55 5 5
55 6 4
55 7 4
55 8 2
55 9 3
55 10 3
55 11 1
55 12 1
55 13 1
55 14 2
55 15 3
55 16 5
55 17 1
55 18 4
55 19 1
55 20 1
55 21 4
55 22 2
55 23 4
55 24 5
55 25 4
55 26 1
55 27 4
55 28 4
55 29 1
55 30 3
55 31 2
55 32 2
55 33 2
55 34 3
55 35 3
55 36 5
55 37 2
55 38 4
55 39 5
55 40 5
55 41 5
55 42 1
55 43 5
55 44 3
55 45 1
55 46 1
55 47 2
55 48 3
55 49 4
55 50 1
55 51 4
55 52 5
55 53 4
55 54 5
56 0 3
56 1 2
56 2 1
56 3 2
56 4 3
56 5 2
56 6 3
56 7 5
56 8 4
56 9 1
56 10 2
56 11 1
56 12 5
56 13 1
56 14 4
56 15 5
56 16 3
56 17 3
56 18 5
56 19 1
56 20 1
56 21 2
56 22 1
56 23 2
56 24 4
56 25 3
56 26 4
56 27 3
56 28 2
56 29 4
56 30 5
56 31 3
56 32 1
56 33 2
56 34 5
56 35 2
56 36 3
56 37 1
56 38 2
56 39 2
56 40 2
56 41 5
56 42 5
56 43 3
56 44 5
56 45 5
56 46 5
56 47 5
56 48 3
56 49 4
56 50 1
56 51 5
56 52 3
56 53 4
56 54 4
56 55 1
57 0 4
57 1 2
57 2 3
57 3 4
57 4 1
57 5 5
57 6 4
57 7 1
57 8 4
57 9 1
57 10 5
57 11 1
57 12 2
57 13 4
57 14 1
57 15 3
57 16 5
57 17 4
57 18 1
57 19 3
57 20 3
57 21 5
57 22 1
57 23 5
57 24 5
57 25 5
57 26 5
57 27 1
57 28 5
57 29 4
57 30 4
57 31 2
57 32 5
57 33 4
57 34 1
57 35 2
57 36 4
57 37 5
57 38 1
57 39 5
57 40 1
57 41 1
57 42 5
57 43 5
57 44 2
57 45 3
57 46 5
57 47 2
57 48 3
57 49 1
57 50 5
57 51 4
57 52 4
57 53 2
57 54 4
57 55 3
57 56 1
58 0 4
58 1 4
58 2 2
58 3 4
58 4 5
58 5 3
58 6 1
58 7 2
58 8 3
58 9 4
58 10 2
58 11 3
58 12 5
58 13 4
58 14 4
58 15 2
58 16 1
58 17 5
58 18 3
58 19 2
58 20 1
58 21 1
58 22 2
58 23 2
58 24 5
58 25 3
58 26 1
58 27 3
58 28 2
58 29 1
58 30 3
58 31 1
58 32 2
58 33 1
58 34 1
58 35 3
58 36 1
58 37 5
58 38 3
58 39 2
58 40 1
58 41 2
58 42 5
58 43 2
58 44 1
58 45 1
58 46 2
58 47 4
58 48 4
58 49 5
58 50 4
58 51 2
58 52 2
58 53 2
58 54 2
58 55 3
58 56 1
58 57 5
59 0 4
59 1 2
59 2 2
59 3 2
59 4 4
59 5 3
59 6 5
59 7 4
59 8 5
59 9 2
59 10 2
59 11 4
59 12 4
59 13 1
59 14 1
59 15 1
59 16 2
59 17 5
59 18 3
59 19 5
59 20 2
59 21 1
59 22 5
59 23 3
59 24 5
59 25 1
59 26 4
59 27 4
59 28 2
59 29 2
59 30 2
59 31 1
59 32 5
59 33 1
59 34 2
59 35 1
59 36 4
59 37 1
59 38 4
59 39 4
59 40 3
59 41 1
59 42 1
59 43 4
59 44 4
59 45 4
59 46 3
59 47 2
59 48 4
59 49 4
59 50 4
59 51 3
59 52 2
59 53 5
59 54 1
59 55 4
59 56 2
59 57 3
59 58 1
60 0 5
60 1 1
60 2 4
60 3 4
60 4 1
60 5 3
60 6 1
60 7 3
60 8 4
60 9 4
60 10 3
60 11 5
60 12 4
60 13 4
60 14 2
60 15 3
60 16 2
60 17 1
60 18 5
60 19 5
60 20 4
60 21 1
60 22 3
60 23 3
60 24 2
60 25 2
60 26 2
60 27 2
60 28 4
60 29 5
60 30 1
60 31 2
60 32 1
60 33 5
60 34 1
60 35 1
60 36 4
60 37 2
60 38 2
60 39 5
60 40 3
60 41 4
60 42 3
60 43 5
60 44 1
60 45 5
60 46 2
60 47 3
60 48 5
60 49 4
60 50 5
60 51 1
60 52 4
60 53 4
60 54 2
60 55 2
60 56 1
60 57 4
60 58 5
60 59 2
61 0 3
61 1 1
61 2 5
61 3 1
61 4 5
61 5 5
61 6 5
61 7 2
61 8 1
61 9 2
61 10 1
61 11 1
61 12 5
61 13 2
61 14 1
61 15 5
61 16 5
61 17 5
61 18 1
61 19 2
61 20 5
61 21 2
61 22 2
61 23 3
61 24 5
61 25 4
61 26 3
61 27 1
61 28 5
61 29 2
61 30 2
61 31 3
61 32 2
61 33 4
61 34 5
61 35 1
61 36 4
61 37 4
61 38 5
61 39 2
61 40 5
61 41 3
61 42 2
61 43 5
61 44 2
61 45 5
61 46 4
61 47 1
61 48 5
61 49 1
61 50 1
61 51 1
61 52 4
61 53 3
61 54 5
61 55 5
61 56 1
61 57 3
61 58 2
61 59 1
61 60 2
62 0 3
62 1 2
62 2 5
62 3 5
62 4 5
62 5 4
62 6 1
62 7 5
62 8 1
62 9 4
62 10 5
62 11 1
62 12 3
62 13 2
62 14 5
62 15 3
62 16 4
62 17 5
62 18 3
62 19 5
62 20 1
62 21 5
62 22 2
62 23 3
62 24 1
62 25 1
62 26 1
62 27 4
62 28 3
62 29 2
62 30 5
62 31 5
62 32 4
62 33 5
62 34 1
62 35 2
62 36 2
62 37 3
62 38 1
62 39 5
62 40 1
62 41 5
62 42 5
62 43 2
62 44 5
62 45 4
62 46 3
62 47 5
62 48 3
62 49 3
62 50 4
62 51 1
62 52 5
62 53 2
62 54 5
62 55 5
62 56 4
62 57 3
62 58 5
62 59 1
62 60 2
62 61 5
63 0 2
63 1 4
63 2 3
63 3 1
63 4 1
63 5 3
63 6 2
63 7 3
63 8 3
63 9 4
63 10 5
63 11 1
63 12 1
63 13 5
63 14 2
63 15 3
63 16 5
63 17 4
63 18 3
63 19 5
63 20 3
63 21 4
63 22 2
63 23 1
63 24 2
63 25 1
63 26 1
63 27 2
63 28 5
63 29 3
63 30 2
63 31 1
63 32 2
63 33 1
63 34 3
63 35 5
63 36 3
63 37 5
63 38 5
63 39 2
63 40 2
63 41 4
63 42 5
63 43 3
63 44 5
63 45 4
63 46 3
63 47 1
63 48 2
63 49 3
63 50 1
63 51 4
63 52 5
63 53 2
63 54 1
63 55 5
63 56 4
63 57 1
63 58 4
63 59 2
63 60 2
63 61 2
63 62 4
64 0 3
64 1 5
64 2 4
64 3 3
64 4 5
64 5 4
64 6 1
64 7 1
64 8 1
64 9 5
64 10 1
64 11 1
64 12 2
64 13 2
64 14 5
64 15 4
64 16 3
64 17 3
64 18 3
64 19 1
64 20 2
64 21 3
64 22 5
64 23 4
64 24 4
64 25 3
64 26 1
64 27 3
64 28 5
64 29 3
64 30 2
64 31 3
64 32 5
64 33 5
64 34 5
64 35 4
64 36 4
64 37 2
64 38 1
64 39 1
64 40 2
64 41 5
64 42 1
64 43 5
64 44 2
64 45 3
64 46 5
64 47 5
64 48 1
64 49 1
64 50 4
64 51 4
64 52 4
64 53 2
64 54 1
64 55 5
64 56 4
64 57 4
64 58 2
64 59 2
64 60 3
64 61 4
64 62 4
64 63 5
65 0 3
65 1 1
65 2 2
65 3 3
65 4 3
65 5 5
65 6 3
65 7 1
65 8 3
65 9 4
65 10 2
65 11 3
65 12 3
65 13 2
65 14 3
65 15 1
65 16 1
65 17 5
65 18 3
65 19 1
65 20 2
65 21 4
65 22 4
65 23 1
65 24 1
65 25 5
65 26 3
65 27 1
65 28 4
65 29 3
65 30 2
65 31 3
65 32 1
65 33 1
65 34 5
65 35 4
65 36 1
65 37 1
65 38 1
65 39 5
65 40 3
65 41 1
65 42 1
65 43 1
65 44 2
65 45 3
65 46 2
65 47 1
65 48 5
65 49 1
65 50 2
65 51 5
65 52 2
65 53 2
65 54 3
65 55 4
65 56 2
65 57 2
65 58 4
65 59 1
65 60 1
65 61 5
65 62 3
65 63 5
65 64 3
66 0 2
66 1 2
66 2 4
66 3 1
66 4 2
66 5 5
66 6 5
66 7 5
66 8 5
66 9 5
66 10 5
66 11 2
66 12 4
66 13 3
66 14 5
66 15 1
66 16 4
66 17 4
66 18 2
66 19 1
66 20 5
66 21 1
66 22 5
66 23 2
66 24 2
66 25 2
66 26 2
66 27 3
66 28 2
66 29 1
66 30 1
66 31 3
66 32 1
66 33 1
66 34 5
66 35 5
66 36 2
66 37 2
66 38 3
66 39 5
66 40 4
66 41 2
66 42 4
66 43 3
66 44 5
66 45 1
66 46 2
66 47 5
66 48 5
66 49 2
66 50 3
66 51 2
66 52 5
66 53 4
66 54 1
66 55 5
66 56 4
66 57 1
66 58 1
66 59 1
66 60 5
66 61 2
66 62 1
66 63 3
66 64 4
66 65 4
67 0 1
67 1 4
67 2 3
67 3 3
67 4 2
67 5 3
67 6 3
67 7 2
67 8 5
67 9 5
67 10 1
67 11 4
67 12 4
67 13 2
67 14 5
67 15 2
67 16 4
67 17 5
67 18 2
67 19 5
67 20 4
67 21 3
67 22 4
67 23 4
67 24 2
67 25 4
67 26 5
67 27 2
67 28 1
67 29 5
67 30 1
67 31 3
67 32 5
67 33 1
67 34 5
67 35 1
67 36 5
67 37 5
67 38 1
67 39 5
67 40 1
67 41 1
67 42 5
67 43 2
67 44 4
67 45 2
67 46 1
67 47 3
67 48 1
67 49 4
67 50 5
67 51 4
67 52 1
67 53 1
67 54 2
67 55 2
67 56 5
67 57 2
67 58 1
67 59 1
67 60 2
67 61 1
67 62 1
67 63 2
67 64 3
67 65 1
67 66 2
68 0 1
68 1 1
68 2 3
68 3 3
68 4 2
68 5 3
68 6 5
68 7 2
68 8 1
68 9 1
68 10 4
68 11 5
68 12 2
68 13 1
68 14 5
68 15 2
68 16 2
68 17 5
68 18 5
68 19 3
68 20 4
68 21 2
68 22 2
68 23 1
68 24 1
68 25 1
68 26 4
68 27 3
68 28 3
68 29 5
68 30 2
68 31 1
68 32 5
68 33 3
68 34 3
68 35 3
68 36 5
68 37 4
68 38 5
68 39 2
68 40 2
68 41 4
68 42 4
68 43 5
68 44 2
68 45 2
68 46 5
68 47 5
68 48 1
68 49 1
68 50 3
68 51 5
68 52 2
68 53 4
68 54 1
68 55 5
68 56 2
68 57 2
68 58 1
68 59 2
68 60 4
68 61 4
68 62 1
68 63 1
68 64 2
68 65 2
68 66 2
68 67 3
69 0 2
69 1 1
69 2 3
69 3 3
69 4 1
69 5 2
69 6 1
69 7 5
69 8 2
69 9 1
69 10 2
69 11 2
69 12 1
69 13 3
69 14 5
69 15 5
69 16 5
69 17 5
69 18 4
69 19 1
69 20 5
69 21 2
69 22 3
69 23 3
69 24 4
69 25 5
69 26 1
69 27 5
69 28 1
69 29 3
69 30 2
69 31 5
69 32 2
69 33 4
69 34 2
69 35 1
69 36 2
69 37 2
69 38 1
69 39 5
69 40 3
69 41 5
69 42 2
69 43 4
69 44 3
69 45 3
69 46 5
69 47 4
69 48 5
69 49 3
69 50 4
69 51 1
69 52 5
69 53 5
69 54 4
69 55 3
69 56 3
69 57 2
69 58 5
69 59 5
69 60 3
69 61 4
69 62 2
69 63 1
69 64 2
69 65 3
69 66 2
69 67 5
69 68 2
70 0 5
70 1 3
70 2 4
70 3 4
70 4 3
70 5 2
70 6 4
70 7 2
70 8 1
70 9 5
70 10 1
70 11 5
70 12 2
70 13 2
70 14 4
70 15 2
70 16 2
70 17 5
70 18 3
70 19 1
70 20 2
70 21 2
70 22 2
70 23 2
70 24 2
70 25 4
70 26 4
70 27 5
70 28 1
70 29 5
70 30 3
70 31 3
70 32 4
70 33 1
70 34 2
70 35 1
70 36 2
70 37 3
70 38 4
70 39 2
70 40 5
70 41 2
70 42 4
70 43 1
70 44 3
70 45 2
70 46 4
70 47 4
70 48 1
70 49 1
70 50 5
70 51 4
70 52 5
70 53 2
70 54 1
70 55 5
70 56 2
70 57 5
70 58 5
70 59 5
70 60 5
70 61 1
70 62 3
70 63 5
70 64 3
70 65 3
70 66 1
70 67 1
70 68 1
70 69 1
71 0 3
71 1 3
71 2 1
71 3 5
71 4 5
71 5 2
71 6 3
71 7 5
71 8 3
71 9 1
71 10 2
71 11 5
71 12 1
71 13 4
71 14 3
71 15 1
71 16 4
71 17 2
71 18 4
71 19 5
71 20 1
71 21 2
71 22 5
71 23 4
71 24 2
71 25 2
71 26 1
71 27 1
71 28 4
71 29 3
71 30 1
71 31 2
71 32 5
71 33 4
71 34 4
71 35 5
71 36 5
71 37 2
71 38 5
71 39 4
71 40 1
71 41 5
71 42 1
71 43 2
71 44 1
71 45 3
71 46 4
71 47 4
71 48 4
71 49 1
71 50 4
71 51 4
71 52 5
71 53 4
71 54 4
71 55 2
71 56 3
71 57 2
71 58 1
71 59 4
71 60 1
71 61 1
71 62 2
71 63 1
71 64 5
71 65 2
71 66 2
71 67 1
71 68 5
71 69 4
71 70 4
72 0 1
72 1 3
72 2 5
72 3 3
72 4 2
72 5 5
72 6 2
72 7 4
72 8 2
72 9 5
72 10 5
72 11 4
72 12 2
72 13 1
72 14 4
72 15 5
72 16 2
72 17 3
72 18 1
72 19 2
72 20 3
72 21 2
72 22 2
72 23 5
72 24 2
72 25 3
72 26 5
72 27 2
72 28 1
72 29 5
72 30 5
72 31 2
72 32 4
72 33 5
72 34 2
72 35 4
72 36 5
72 37 5
72 38 1
72 39 1
72 40 1
72 41 3
72 42 5
72 43 2
72 44 2
72 45 1
72 46 1
72 47 3
72 48 3
72 49 1
72 50 2
72 51 3
72 52 4
72 53 2
72 54 1
72 55 5
72 56 5
72 57 2
72 58 1
72 59 5
72 60 1
72 61 3
72 62 3
72 63 1
72 64 4
72 65 1
72 66 3
72 67 5
72 68 1
72 69 3
72 70 1
72 71 4
73 0 4
73 1 2
73 2 4
73 3 5
73 4 1
73 5 1
73 6 5
73 7 2
73 8 3
73 9 1
73 10 1
73 11 5
73 12 4
73 13 3
73 14 4
73 15 1
73 16 5
73 17 1
73 18 3
73 19 5
73 20 4
73 21 4
73 22 4
73 23 4
73 24 3
73 25 3
73 26 3
73 27 1
73 28 2
73 29 2
73 30 2
73 31 3
73 32 1
73 33 2
73 34 2
73 35 5
73 36 1
73 37 5
73 38 4
73 39 5
73 40 2
73 41 2
73 42 2
73 43 2
73 44 2
73 45 3
73 46 4
73 47 3
73 48 3
73 49 4
73 50 4
73 51 1
73 52 4
73 53 5
73 54 3
73 55 3
73 56 5
73 57 4
73 58 3
73 59 3
73 60 3
73 61 2
73 62 3
73 63 4
73 64 5
73 65 3
73 66 4
73 67 3
73 68 2
73 69 4
73 70 4
73 71 1
73 72 1
74 0 1
74 1 5
74 2 1
74 3 3
74 4 3
74 5 2
74 6 1
74 7 2
74 8 3
74 9 3
74 10 5
74 11 2
74 12 1
74 13 2
74 14 2
74 15 4
74 16 1
74 17 4
74 18 4
74 19 5
74 20 4
74 21 2
74 22 4
74 23 5
74 24 4
74 25 4
74 26 2
74 27 2
74 28 1
74 29 1
74 30 4
74 31 5
74 32 1
74 33 4
74 34 2
74 35 2
74 36 1
74 37 4
74 38 3
74 39 4
74 40 5
74 41 3
74 42 1
74 43 2
74 44 4
74 45 5
74 46 3
74 47 2
74 48 2
74 49 3
74 50 1
74 51 5
74 52 2
74 53 2
74 54 1
74 55 5
74 56 2
74 57 5
74 58 2
74 59 5
74 60 3
74 61 3
74 62 1
74 63 5
74 64 3
74 65 1
74 66 2
74 67 5
74 68 2
74 69 3
74 70 3
74 71 5
74 72 3
74 73 1
